25 43 40 55 39 96 29 35 44 100 52 45 16 31 23 2 89 84 88 58 76 66 98 94 57 47 99 53 79 6 95 59 77 93 28 37 19 56 46 50 73 54 38 70 72 17 92 27 10 33 3 4 32 78 20 74 26 9 12 14 85 82 75 21 49 13 67 97 86 63 15 87 62 18 1 60 69 8 71 68 83 51 90 65 48 30 80 81 91 64 36 11 61 5 22 41 34 7 42 24 
8047